(set-info :Origin "This instance was generated by: BanditFuzz-- an RL fuzzer for SMT solvers" )
(set-info :Author "Joe Scott, Fed Mora, Vijay Ganesh" )
(set-info :Contact "Joe Scott, joseph.scott@uwaterloo.ca")
; solvers/z3.sh
; 	time => 0.06612753868103027
; 	answer => sat
; solvers/cvc4.sh
; 	time => 0.06240510940551758
; 	answer => sat
(set-logic QF_NIRA)
(declare-const bool_0 Bool)
(declare-const bool_1 Bool)
(declare-const bool_2 Bool)
(declare-const bool_3 Bool)
(declare-const bool_4 Bool)
(declare-const int_0 Int)
(declare-const int_1 Int)
(declare-const int_2 Int)
(declare-const int_3 Int)
(declare-const int_4 Int)
(declare-const real_0 Real)
(declare-const real_1 Real)
(declare-const real_2 Real)
(declare-const real_3 Real)
(declare-const real_4 Real)
(assert (< (* (* real_2 (- 274042373.4120976)) (/ real_4 real_1)) (+ (- 255061341.09590816 real_1) (* real_2 real_4))))
(assert (> (* (+ (- 657574430.5730162) real_0) (- 724485547.5622437)) (- (* real_1 real_4))))
(assert (or (<= (/ 326153510 int_4) (* 169175311 int_1)) (>= (mod 382725710 int_0) (/ int_0 749218804))))
(assert (<= (- (- real_2)) (* (- 791887857.6985805) (- real_2))))
(assert (not (< (- int_1) (mod 953934362 (- 309398157)))))
(check-sat)
(exit)
